c description: Random 3-CNF over 12 variables and 48 clauses
p cnf 12 48
1 4 12 0
1 5 -6 0
-1 -2 4 0
-3 8 12 0
-4 7 8 0
-3 -7 -9 0
2 -5 -11 0
-2 6 -10 0
-7 -10 -12 0
-1 -3 8 0
-1 8 10 0
1 2 -4 0
-2 -4 6 0
1 4 -8 0
6 7 -9 0
-9 10 11 0
5 7 -12 0
6 10 -11 0
1 -3 8 0
-2 8 -10 0
-1 7 9 0
1 8 -9 0
2 -8 10 0
1 -9 -11 0
1 -4 -10 0
-4 -6 -8 0
-3 -4 -8 0
9 10 -12 0
6 8 10 0
3 6 -12 0
-2 9 -10 0
2 -5 10 0
1 -7 -10 0
-5 -6 -11 0
5 7 10 0
4 -10 -12 0
-8 -10 11 0
-5 9 -11 0
-3 -4 8 0
5 -7 12 0
4 8 10 0
-1 3 -8 0
-6 7 -9 0
4 -7 8 0
-6 7 -8 0
-3 -6 8 0
-2 5 11 0
-6 -8 10 0